100
1000
626
617
608
606
606
602
586
579
573
567
551
548
514
514
510
492
492
491
471
469
465
443
441
440
436
431
430
427
422
410
393
392
392
379
377
376
360
343
341
339
330
323
322
321
314
313
307
304
299
298
296
294
291
278
277
276
273
269
239
228
226
222
216
214
211
192
191
181
176
166
166
164
161
155
148
135
133
131
130
125
120
117
106
101
101
100
98
98
94
92
91
76
66
61
56
55
52
47
47
35
